NAME          example
ROWS
 L  R0
 L  R1
 L  R2
 L  R3
 N  R4
COLUMNS
   INT1      'MARKER'      'INTORG'
    x         R0        -3
    x         R1        1
    x         R2        2
    x         R3        -2
    x         R4        -1
    y         R0        2
    y         R1        2
    y         R2        -1
    y         R3        4
    y         R4        -7
    INT1END   'MARKER'     'INTEND'
RHS
    rhs       R0        12
    rhs       R1        20
    rhs       R2        7
    rhs       R3        16
BOUNDS
UP BOUND	     x        10
UP BOUND	     y        5
ENDATA
